21° run output:
{
    "Function": "kroB500.tsp",
    "Problem dimension": [
        76,
        29,
        356,
        207,
        23,
        136,
        69,
        244,
        313,
        11,
        415,
        174,
        268,
        196,
        290,
        483,
        251,
        144,
        446,
        273,
        219,
        386,
        247,
        349,
        111,
        71,
        12,
        443,
        366,
        222,
        228,
        371,
        195,
        245,
        485,
        455,
        252,
        411,
        70,
        398,
        492,
        108,
        317,
        267,
        240,
        238,
        282,
        56,
        482,
        427,
        350,
        478,
        140,
        329,
        149,
        460,
        473,
        249,
        94,
        442,
        304,
        103,
        450,
        168,
        57,
        261,
        192,
        373,
        286,
        139,
        166,
        355,
        191,
        101,
        159,
        66,
        78,
        385,
        479,
        401,
        266,
        236,
        333,
        298,
        361,
        147,
        396,
        360,
        493,
        208,
        253,
        379,
        297,
        380,
        18,
        51,
        470,
        260,
        284,
        75,
        406,
        480,
        418,
        394,
        214,
        432,
        391,
        423,
        17,
        248,
        420,
        129,
        32,
        311,
        138,
        471,
        202,
        100,
        408,
        22,
        315,
        489,
        186,
        367,
        206,
        205,
        156,
        354,
        116,
        39,
        223,
        42,
        185,
        421,
        345,
        358,
        114,
        233,
        289,
        47,
        134,
        82,
        188,
        347,
        448,
        438,
        378,
        305,
        279,
        461,
        490,
        50,
        164,
        63,
        467,
        384,
        89,
        296,
        217,
        145,
        184,
        59,
        38,
        141,
        216,
        281,
        277,
        224,
        211,
        155,
        125,
        302,
        451,
        79,
        308,
        209,
        272,
        389,
        197,
        292,
        497,
        4,
        7,
        49,
        262,
        388,
        177,
        10,
        148,
        274,
        477,
        395,
        181,
        339,
        20,
        319,
        52,
        414,
        269,
        387,
        83,
        198,
        403,
        175,
        314,
        454,
        221,
        374,
        376,
        61,
        62,
        41,
        444,
        430,
        91,
        433,
        113,
        204,
        357,
        321,
        212,
        122,
        157,
        96,
        303,
        417,
        229,
        171,
        447,
        328,
        16,
        3,
        409,
        498,
        377,
        190,
        126,
        35,
        150,
        232,
        170,
        64,
        324,
        8,
        26,
        14,
        276,
        172,
        237,
        437,
        362,
        431,
        449,
        299,
        128,
        2,
        5,
        402,
        81,
        464,
        383,
        13,
        293,
        346,
        28,
        199,
        258,
        341,
        332,
        115,
        84,
        123,
        142,
        393,
        320,
        201,
        40,
        495,
        124,
        351,
        146,
        234,
        187,
        465,
        426,
        469,
        119,
        135,
        121,
        256,
        137,
        306,
        425,
        117,
        203,
        1,
        285,
        243,
        246,
        239,
        162,
        169,
        21,
        496,
        424,
        342,
        31,
        439,
        242,
        15,
        318,
        54,
        370,
        104,
        368,
        399,
        68,
        294,
        43,
        441,
        452,
        404,
        429,
        112,
        241,
        110,
        72,
        459,
        440,
        316,
        65,
        365,
        179,
        218,
        151,
        335,
        381,
        372,
        348,
        227,
        397,
        25,
        435,
        67,
        163,
        19,
        445,
        58,
        173,
        9,
        359,
        338,
        132,
        107,
        422,
        410,
        300,
        255,
        45,
        283,
        165,
        215,
        486,
        343,
        331,
        344,
        44,
        225,
        352,
        161,
        263,
        27,
        127,
        413,
        458,
        322,
        428,
        93,
        235,
        326,
        412,
        46,
        499,
        158,
        487,
        85,
        250,
        37,
        80,
        34,
        334,
        99,
        189,
        92,
        419,
        295,
        265,
        143,
        390,
        6,
        434,
        271,
        36,
        73,
        392,
        474,
        436,
        288,
        488,
        183,
        309,
        97,
        340,
        400,
        323,
        77,
        178,
        472,
        337,
        182,
        102,
        494,
        484,
        476,
        55,
        312,
        466,
        24,
        160,
        88,
        382,
        230,
        270,
        87,
        481,
        369,
        280,
        259,
        330,
        30,
        327,
        48,
        475,
        457,
        118,
        153,
        86,
        405,
        307,
        210,
        220,
        278,
        167,
        325,
        152,
        154,
        105,
        95,
        60,
        130,
        310,
        363,
        33,
        301,
        462,
        491,
        213,
        375,
        463,
        353,
        254,
        456,
        120,
        364,
        106,
        109,
        264,
        291,
        287,
        0,
        74,
        194,
        176,
        226,
        257,
        453,
        131,
        180,
        336,
        231,
        98,
        416,
        468,
        133,
        275,
        193,
        90,
        200,
        53,
        407
    ],
    "Global Optimum": 0,
    "Algorithm": "Genetic algorithm",
    "Parameters": {
        "population": 30,
        "offspring": 30,
        "mutation probability": 0.002,
        "crossover probability": 0.9
    },
    "Fitness": 650309,
    "Solution": [
        76,
        29,
        356,
        207,
        23,
        136,
        69,
        244,
        313,
        11,
        415,
        174,
        268,
        196,
        290,
        483,
        251,
        144,
        446,
        273,
        219,
        386,
        247,
        349,
        111,
        71,
        12,
        443,
        366,
        222,
        228,
        371,
        195,
        245,
        485,
        455,
        252,
        411,
        70,
        398,
        492,
        108,
        317,
        267,
        240,
        238,
        282,
        56,
        482,
        427,
        350,
        478,
        140,
        329,
        149,
        460,
        473,
        249,
        94,
        442,
        304,
        103,
        450,
        168,
        57,
        261,
        192,
        373,
        286,
        139,
        166,
        355,
        191,
        101,
        159,
        66,
        78,
        385,
        479,
        401,
        266,
        236,
        333,
        298,
        361,
        147,
        396,
        360,
        493,
        208,
        253,
        379,
        297,
        380,
        18,
        51,
        470,
        260,
        284,
        75,
        406,
        480,
        418,
        394,
        214,
        432,
        391,
        423,
        17,
        248,
        420,
        129,
        32,
        311,
        138,
        471,
        202,
        100,
        408,
        22,
        315,
        489,
        186,
        367,
        206,
        205,
        156,
        354,
        116,
        39,
        223,
        42,
        185,
        421,
        345,
        358,
        114,
        233,
        289,
        47,
        134,
        82,
        188,
        347,
        448,
        438,
        378,
        305,
        279,
        461,
        490,
        50,
        164,
        63,
        467,
        384,
        89,
        296,
        217,
        145,
        184,
        59,
        38,
        141,
        216,
        281,
        277,
        224,
        211,
        155,
        125,
        302,
        451,
        79,
        308,
        209,
        272,
        389,
        197,
        292,
        497,
        4,
        7,
        49,
        262,
        388,
        177,
        10,
        148,
        274,
        477,
        395,
        181,
        339,
        20,
        319,
        52,
        414,
        269,
        387,
        83,
        198,
        403,
        175,
        314,
        454,
        221,
        374,
        376,
        61,
        62,
        41,
        444,
        430,
        91,
        433,
        113,
        204,
        357,
        321,
        212,
        122,
        157,
        96,
        303,
        417,
        229,
        171,
        447,
        328,
        16,
        3,
        409,
        498,
        377,
        190,
        126,
        35,
        150,
        232,
        170,
        64,
        324,
        8,
        26,
        14,
        276,
        172,
        237,
        437,
        362,
        431,
        449,
        299,
        128,
        2,
        5,
        402,
        81,
        464,
        383,
        13,
        293,
        346,
        28,
        199,
        258,
        341,
        332,
        115,
        84,
        123,
        142,
        393,
        320,
        201,
        40,
        495,
        124,
        351,
        146,
        234,
        187,
        465,
        426,
        469,
        119,
        135,
        121,
        256,
        137,
        306,
        425,
        117,
        203,
        1,
        285,
        243,
        246,
        239,
        162,
        169,
        21,
        496,
        424,
        342,
        31,
        439,
        242,
        15,
        318,
        54,
        370,
        104,
        368,
        399,
        68,
        294,
        43,
        441,
        452,
        404,
        429,
        112,
        241,
        110,
        72,
        459,
        440,
        316,
        65,
        365,
        179,
        218,
        151,
        335,
        381,
        372,
        348,
        227,
        397,
        25,
        435,
        67,
        163,
        19,
        445,
        58,
        173,
        9,
        359,
        338,
        132,
        107,
        422,
        410,
        300,
        255,
        45,
        283,
        165,
        215,
        486,
        343,
        331,
        344,
        44,
        225,
        352,
        161,
        263,
        27,
        127,
        413,
        458,
        322,
        428,
        93,
        235,
        326,
        412,
        46,
        499,
        158,
        487,
        85,
        250,
        37,
        80,
        34,
        334,
        99,
        189,
        92,
        419,
        295,
        265,
        143,
        390,
        6,
        434,
        271,
        36,
        73,
        392,
        474,
        436,
        288,
        488,
        183,
        309,
        97,
        340,
        400,
        323,
        77,
        178,
        472,
        337,
        182,
        102,
        494,
        484,
        476,
        55,
        312,
        466,
        24,
        160,
        88,
        382,
        230,
        270,
        87,
        481,
        369,
        280,
        259,
        330,
        30,
        327,
        48,
        475,
        457,
        118,
        153,
        86,
        405,
        307,
        210,
        220,
        278,
        167,
        325,
        152,
        154,
        105,
        95,
        60,
        130,
        310,
        363,
        33,
        301,
        462,
        491,
        213,
        375,
        463,
        353,
        254,
        456,
        120,
        364,
        106,
        109,
        264,
        291,
        287,
        0,
        74,
        194,
        176,
        226,
        257,
        453,
        131,
        180,
        336,
        231,
        98,
        416,
        468,
        133,
        275,
        193,
        90,
        200,
        53,
        407
    ],
    "Nb of functions evaluations": 50010,
    "Computational time in seconds": 366.8388168811798,
    "Stopping criterion in evaluations": 50000
}